559 561 562 
619 621 622 
680 682 683 
740 742 743 
801 803 804 
861 863 864 
921 923 924 
981 983 984 
1041 1043 1044 
1101 1103 1104 
1160 1161 1162 
1219 1220 1221 
1279 1280 1281 
1339 1340 1341 
1399 1400 1401 
1459 1460 1461 
